(set-logic QF_UF)
(declare-fun A0 () Bool)
(declare-fun A1 () Bool)
(declare-fun A2 () Bool)
(declare-fun A3 () Bool)
(declare-fun A4 () Bool)
(declare-fun A5 () Bool)
(declare-fun A6 () Bool)
(declare-fun A7 () Bool)
(declare-fun A8 () Bool)
(declare-fun A9 () Bool)
(declare-fun A10 () Bool)
(declare-fun A11 () Bool)
(declare-fun A12 () Bool)
(declare-fun A13 () Bool)
(declare-fun A15 () Bool)
(declare-fun A16 () Bool)
(declare-fun A17 () Bool)
(declare-fun A18 () Bool)
(declare-fun A19 () Bool)
(declare-fun A23 () Bool)
(declare-fun A24 () Bool)
(declare-fun A25 () Bool)
(declare-fun A26 () Bool)
(declare-fun A27 () Bool)
(declare-fun A28 () Bool)
(assert (let ((.def_0 (not A9))) (let ((.def_1 (and .def_0 A19))) (let ((.def_2 (not A19))) (let ((.def_3 (and A2 .def_2))) (let ((.def_4 (not .def_3))) (let ((.def_5 (and .def_4 .def_1))) (let ((.def_6 (not .def_5))) (let ((.def_7 (and A15 A13))) (let ((.def_8 (not .def_7))) (let ((.def_9 (not A1))) (let ((.def_10 (not A12))) (let ((.def_11 (and .def_10 .def_9))) (let ((.def_12 (not .def_11))) (let ((.def_13 (or .def_12 .def_8))) (let ((.def_14 (and .def_13 .def_6))) (let ((.def_15 (and A26 A16))) (let ((.def_16 (and A28 .def_0))) (let ((.def_17 (not .def_16))) (let ((.def_18 (= .def_17 .def_15))) (let ((.def_19 (not .def_18))) (let ((.def_20 (and A7 A10))) (let ((.def_21 (not .def_20))) (let ((.def_22 (not A28))) (let ((.def_23 (and A23 .def_22))) (let ((.def_24 (and .def_23 .def_21))) (let ((.def_25 (not .def_24))) (let ((.def_26 (or .def_25 .def_19))) (let ((.def_27 (or .def_26 .def_14))) (let ((.def_28 (not .def_27))) (let ((.def_29 (not A25))) (let ((.def_30 (not A7))) (let ((.def_31 (and .def_30 .def_29))) (let ((.def_32 (not A27))) (let ((.def_33 (not A5))) (let ((.def_34 (and .def_33 .def_32))) (let ((.def_35 (or .def_34 .def_31))) (let ((.def_36 (not .def_35))) (let ((.def_37 (or A16 A16))) (let ((.def_38 (not .def_37))) (let ((.def_39 (and A17 A17))) (let ((.def_40 (not .def_39))) (let ((.def_41 (and .def_40 .def_38))) (let ((.def_42 (= .def_41 .def_36))) (let ((.def_43 (not .def_42))) (let ((.def_44 (and A26 A7))) (let ((.def_45 (not .def_44))) (let ((.def_46 (and .def_9 A15))) (let ((.def_47 (or .def_46 .def_45))) (let ((.def_48 (not .def_47))) (let ((.def_49 (not A2))) (let ((.def_50 (and .def_49 A13))) (let ((.def_51 (not .def_50))) (let ((.def_52 (not A24))) (let ((.def_53 (not A26))) (let ((.def_54 (= .def_53 .def_52))) (let ((.def_55 (not .def_54))) (let ((.def_56 (and .def_55 .def_51))) (let ((.def_57 (and .def_56 .def_48))) (let ((.def_58 (and .def_57 .def_43))) (let ((.def_59 (not .def_58))) (let ((.def_60 (or .def_59 .def_28))) (let ((.def_61 (not .def_60))) (let ((.def_62 (not A23))) (let ((.def_63 (not A4))) (let ((.def_64 (and .def_63 .def_62))) (let ((.def_65 (not .def_64))) (let ((.def_66 (and .def_22 .def_33))) (let ((.def_67 (and .def_66 .def_65))) (let ((.def_68 (not A10))) (let ((.def_69 (and .def_68 A17))) (let ((.def_70 (not .def_69))) (let ((.def_71 (not A13))) (let ((.def_72 (and A25 .def_71))) (let ((.def_73 (= .def_72 .def_70))) (let ((.def_74 (or .def_73 .def_67))) (let ((.def_75 (not .def_74))) (let ((.def_76 (or A10 A23))) (let ((.def_77 (not .def_76))) (let ((.def_78 (or .def_10 A3))) (let ((.def_79 (not .def_78))) (let ((.def_80 (and .def_79 .def_77))) (let ((.def_81 (or A12 A26))) (let ((.def_82 (or A26 A19))) (let ((.def_83 (not .def_82))) (let ((.def_84 (and .def_83 .def_81))) (let ((.def_85 (not .def_84))) (let ((.def_86 (or .def_85 .def_80))) (let ((.def_87 (or .def_86 .def_75))) (let ((.def_88 (not .def_87))) (let ((.def_89 (and .def_63 A15))) (let ((.def_90 (not A3))) (let ((.def_91 (not A15))) (let ((.def_92 (and .def_91 .def_90))) (let ((.def_93 (not .def_92))) (let ((.def_94 (and .def_93 .def_89))) (let ((.def_95 (and A0 A11))) (let ((.def_96 (not .def_95))) (let ((.def_97 (or A9 A18))) (let ((.def_98 (not .def_97))) (let ((.def_99 (or .def_98 .def_96))) (let ((.def_100 (not .def_99))) (let ((.def_101 (and .def_100 .def_94))) (let ((.def_102 (and A8 A28))) (let ((.def_103 (not A11))) (let ((.def_104 (and .def_0 .def_103))) (let ((.def_105 (not .def_104))) (let ((.def_106 (= .def_105 .def_102))) (let ((.def_107 (and A13 A9))) (let ((.def_108 (not .def_107))) (let ((.def_109 (or A6 .def_22))) (let ((.def_110 (or .def_109 .def_108))) (let ((.def_111 (or .def_110 .def_106))) (let ((.def_112 (not .def_111))) (let ((.def_113 (and .def_112 .def_101))) (let ((.def_114 (and .def_113 .def_88))) (let ((.def_115 (not .def_114))) (let ((.def_116 (or .def_115 .def_61))) .def_116))))))))))))))))))))))))))))))))))))))))))))))))))))))))))))))))))))))))))))))))))))))))))))))))))))))))))))))))))))))
(check-sat)
